(set-logic ALL)
(set-option :produce-models true)
(declare-sort BoundSet 0)
(declare-sort UnboundSet 0)
(set-option :finite-model-find true)
(declare-fun IsPersonallyAttacking (BoundSet) Bool)
(declare-fun IsFormOfBullying (BoundSet) Bool)
(declare-fun IsAttacking (BoundSet) Bool)
(declare-fun IsBullying (BoundSet) Bool)
(assert (not (=> (exists ((b BoundSet)) (and (IsPersonallyAttacking b) (IsFormOfBullying b))) (exists ((c BoundSet)) (exists ((a BoundSet)) (and (IsAttacking a) (IsBullying c)))))))
(check-sat)
(get-model)